language Essence 1.3

letting blksize_delta be
        function(1 --> 9, 2 --> 9, 3 --> 10, 4 --> 9, 5 --> 9, 6 --> 9, 7 --> 9, 8 --> 9, 9 --> 9, 10 --> 9, 11 --> 9,
                 12 --> 9, 13 --> 9, 14 --> 9, 15 --> 9, 16 --> 9, 17 --> 9, 18 --> 9, 19 --> 9, 20 --> 9, 21 --> 9,
                 22 --> 9, 23 --> 9, 24 --> 9, 25 --> 9)
letting maxcars be
        function(1 --> 9, 2 --> 9, 3 --> 9, 4 --> 9, 5 --> 9, 6 --> 9, 7 --> 10, 8 --> 9, 9 --> 9, 10 --> 9, 11 --> 9,
                 12 --> 9, 13 --> 9, 14 --> 10, 15 --> 9, 16 --> 9, 17 --> 9, 18 --> 9, 19 --> 9, 20 --> 9, 21 --> 9,
                 22 --> 9, 23 --> 9, 24 --> 9, 25 --> 10)
letting n_cars be 194
letting n_classes be 24
letting n_options be 25
letting quantity be
        function(1 --> 7, 2 --> 7, 3 --> 21, 4 --> 7, 5 --> 7, 6 --> 10, 7 --> 7, 8 --> 7, 9 --> 7, 10 --> 7, 11 --> 7,
                 12 --> 7, 13 --> 16, 14 --> 7, 15 --> 7, 16 --> 7, 17 --> 7, 18 --> 7, 19 --> 7, 20 --> 7, 21 --> 7,
                 22 --> 7, 23 --> 7, 24 --> 7)
letting usage be
        relation((1, 7), (1, 15), (2, 2), (2, 9), (2, 13), (2, 17), (2, 25), (3, 25), (4, 6), (5, 6), (6, 3), (6, 14),
                 (6, 18), (6, 23), (6, 24), (7, 6), (7, 13), (8, 2), (8, 7), (8, 10), (8, 12), (8, 14), (8, 22),
                 (9, 20), (10, 12), (10, 13), (11, 1), (11, 13), (12, 9), (12, 19), (12, 24), (12, 25), (13, 1),
                 (13, 2), (13, 4), (13, 14), (13, 15), (14, 11), (15, 16), (15, 19), (15, 20), (15, 21), (16, 4),
                 (16, 18), (17, 1), (17, 12), (18, 5), (18, 8), (18, 12), (18, 13), (18, 17), (18, 24), (19, 17),
                 (19, 19), (20, 7), (20, 17), (21, 2), (21, 3), (21, 17), (22, 6), (22, 16), (22, 25), (23, 9), (24, 9),
                 (24, 17))
$ Visualisation for usage
$  1  7
$  1 15
$  2  2
$  2  9
$  2 13
$  2 17
$  2 25
$  3 25
$  4  6
$  5  6
$  6  3
$  6 14
$  6 18
$  6 23
$  6 24
$  7  6
$  7 13
$  8  2
$  8  7
$  8 10
$  8 12
$  8 14
$  8 22
$  9 20
$ 10 12
$ 10 13
$ 11  1
$ 11 13
$ 12  9
$ 12 19
$ 12 24
$ 12 25
$ 13  1
$ 13  2
$ 13  4
$ 13 14
$ 13 15
$ 14 11
$ 15 16
$ 15 19
$ 15 20
$ 15 21
$ 16  4
$ 16 18
$ 17  1
$ 17 12
$ 18  5
$ 18  8
$ 18 12
$ 18 13
$ 18 17
$ 18 24
$ 19 17
$ 19 19
$ 20  7
$ 20 17
$ 21  2
$ 21  3
$ 21 17
$ 22  6
$ 22 16
$ 22 25
$ 23  9
$ 24  9
$ 24 17

